data;

param num_top:=5;

#nodes and edges of the physical network
param n := 10;

set E := (1,2) (1,3) (1,7) (2,4) (2,7) (3,5) (4,8) (5,6) (5,7) (6,7) (6,9) (7,8) (7,9) (8,10) (9,10) ;

#nodes and edges of the virtual networks
set Nl[1] := 9 4 1 10 2 ;
set Nl[2] := 8 3 9 7 2 ;
set Nl[3] := 1 9 4 8 10 ;
set Nl[4] := 10 4 2 8 1 ;
set Nl[5] := 10 8 2 3 1 ;

set El[1] := (4,9) (1,4) (1,10) (2,10) (2,9) (2,4) (9,10) (4,10) (1,2) (1,9) ;
set El[2] := (3,8) (3,9) (7,9) (2,7) (2,8) (2,3) (3,7) (2,9) (7,8) (8,9) ;
set El[3] := (1,9) (4,9) (4,8) (8,10) (1,10) (9,10) (4,10) (1,4) (8,9) (1,8) ;
set El[4] := (4,10) (2,4) (2,8) (1,8) (1,10) (4,8) (1,4) (2,10) (1,2) (8,10) ;
set El[5] := (8,10) (2,8) (2,3) (1,3) (1,10) (2,10) (3,8) (1,8) (1,2) (3,10) ;
